53766
0 32 7621
32 41 4807
41 10 1343
10 44 436
44 1 787
1 13 433
13 8 471
8 11 723
11 17 768
17 3 606
3 29 380
29 46 944
46 53 491
53 33 401
33 52 396
52 22 388
22 48 1461
48 25 560
25 54 397
54 27 487
27 5 404
5 2 385
2 42 1096
42 39 1279
39 6 1176
6 36 517
36 50 590
50 12 644
12 4 723
4 34 323
34 23 296
23 19 740
19 49 763
49 7 1471
7 37 368
37 43 690
43 31 676
31 40 362
40 18 1369
18 47 897
47 16 415
16 20 638
20 28 516
28 21 544
21 9 117
9 15 734
15 38 451
38 45 214
45 35 402
35 14 679
14 51 631
51 24 874
24 30 299
30 26 4460
26 0 4123
